ssat_solver_solve2
#level: 2
Abc_NtkNodeNum(s->pNtk): 1012  , BDD limit: 10240
level 1: 15 element
Exist
existence_eliminate_scope
Abc_NtkIsBddLogic(pNtk): 0
Abc_NtkIsStrash(pNtk): 1
existence_eliminate_scope_aig
exist by BDD failed
Abc_NtkNodeNum(s->pNtk): 1059149  , BDD limit: 1270978
Build BDD success
level 0: 15 element
Random
c ssat solving in ABC
#var: 30
s SATISFIABLE
  > Upper bound = 5.677185e-01
  > Lower bound = 5.677185e-01
FINISHED CPU 12.45 MEM 0 MAXMEM 242364 STALE 0 MAXMEM_RSS 195364
<time name="ALL">12450</time>
real 12.60
user 14.33
sys 5.53
